
Gurobi 11.0.3 (linux64) logging started Mon Dec 15 16:19:51 2025

Set parameter LogFile to value "./log/train/IS_900_5/IS_5.lp.log"
Set parameter TimeLimit to value 3600
Gurobi Optimizer version 11.0.3 build v11.0.3rc0 (linux64 - "Ubuntu 22.04.5 LTS")

CPU model: AMD Ryzen 9 9900X 12-Core Processor, instruction set [SSE2|AVX|AVX2|AVX512]
Thread count: 12 physical cores, 24 logical processors, using up to 24 threads

Optimize a model with 4626 rows, 900 columns and 9068 nonzeros
Model fingerprint: 0xac94ce38
Variable types: 0 continuous, 900 integer (900 binary)
Coefficient statistics:
  Matrix range     [1e+00, 1e+00]
  Objective range  [1e+00, 1e+00]
  Bounds range     [1e+00, 1e+00]
  RHS range        [1e+00, 1e+00]
Found heuristic solution: objective 214.0000000
Presolve removed 948 rows and 0 columns
Presolve time: 0.01s
Presolved: 3678 rows, 900 columns, 8048 nonzeros
Variable types: 0 continuous, 900 integer (900 binary)

Root relaxation: objective 4.135000e+02, 1666 iterations, 0.03 seconds (0.07 work units)

    Nodes    |    Current Node    |     Objective Bounds      |     Work
 Expl Unexpl |  Obj  Depth IntInf | Incumbent    BestBd   Gap | It/Node Time

     0     0  413.50000    0  779  214.00000  413.50000  93.2%     -    0s
H    0     0                     348.0000000  413.50000  18.8%     -    0s
H    0     0                     364.0000000  413.50000  13.6%     -    0s
     0     0  407.00287    0  884  364.00000  407.00287  11.8%     -    0s
H    0     0                     367.0000000  407.00287  10.9%     -    0s
H    0     0                     369.0000000  407.00287  10.3%     -    0s
     0     0  407.00286    0  887  369.00000  407.00286  10.3%     -    0s
     0     0  402.07224    0  887  369.00000  402.07224  8.96%     -    0s
     0     0  401.97563    0  889  369.00000  401.97563  8.94%     -    0s
     0     0  401.96991    0  888  369.00000  401.96991  8.93%     -    0s
     0     0  401.96991    0  888  369.00000  401.96991  8.93%     -    0s
     0     0  399.75802    0  882  369.00000  399.75802  8.34%     -    0s
     0     0  399.37661    0  883  369.00000  399.37661  8.23%     -    0s
     0     0  399.36766    0  885  369.00000  399.36766  8.23%     -    0s
     0     0  399.36466    0  887  369.00000  399.36466  8.23%     -    0s
     0     0  397.64208    0  886  369.00000  397.64208  7.76%     -    0s
     0     0  397.48297    0  884  369.00000  397.48297  7.72%     -    0s
     0     0  397.45597    0  883  369.00000  397.45597  7.71%     -    0s
     0     0  397.44171    0  883  369.00000  397.44171  7.71%     -    0s
     0     0  397.43823    0  883  369.00000  397.43823  7.71%     -    0s
     0     0  396.47644    0  879  369.00000  396.47644  7.45%     -    0s
     0     0  396.32696    0  881  369.00000  396.32696  7.41%     -    0s
     0     0  396.30943    0  885  369.00000  396.30943  7.40%     -    0s
     0     0  396.29573    0  884  369.00000  396.29573  7.40%     -    0s
     0     0  396.29531    0  883  369.00000  396.29531  7.40%     -    0s
     0     0  395.77490    0  886  369.00000  395.77490  7.26%     -    1s
     0     0  395.64817    0  882  369.00000  395.64817  7.22%     -    1s
     0     0  395.63510    0  880  369.00000  395.63510  7.22%     -    1s
     0     0  395.62972    0  884  369.00000  395.62972  7.22%     -    1s
H    0     0                     371.0000000  395.12182  6.50%     -    1s
     0     0  395.12182    0  879  371.00000  395.12182  6.50%     -    1s
     0     0  395.05859    0  883  371.00000  395.05859  6.48%     -    1s
     0     0  395.04743    0  882  371.00000  395.04743  6.48%     -    1s
     0     0  395.04503    0  882  371.00000  395.04503  6.48%     -    1s
     0     0  394.63846    0  883  371.00000  394.63846  6.37%     -    1s
     0     0  394.59547    0  885  371.00000  394.59547  6.36%     -    1s
     0     0  394.58765    0  885  371.00000  394.58765  6.36%     -    1s
     0     0  394.58126    0  884  371.00000  394.58126  6.36%     -    1s
     0     0  394.42607    0  886  371.00000  394.42607  6.31%     -    1s
     0     0  394.38923    0  886  371.00000  394.38923  6.30%     -    1s
     0     0  394.38319    0  887  371.00000  394.38319  6.30%     -    1s
     0     0  394.28567    0  885  371.00000  394.28567  6.28%     -    1s
     0     0  394.25709    0  885  371.00000  394.25709  6.27%     -    1s
     0     0  394.25350    0  887  371.00000  394.25350  6.27%     -    1s
     0     0  394.03143    0  887  371.00000  394.03143  6.21%     -    1s
     0     0  394.00635    0  887  371.00000  394.00635  6.20%     -    1s
     0     0  394.00367    0  887  371.00000  394.00367  6.20%     -    1s
     0     0  393.99013    0  888  371.00000  393.99013  6.20%     -    1s
     0     0  393.99013    0  886  371.00000  393.99013  6.20%     -    1s
H    0     0                     372.0000000  393.99013  5.91%     -    1s
     0     2  393.99013    0  886  372.00000  393.99013  5.91%     -    1s
H   33    40                     373.0000000  393.52365  5.50%  1177    3s
H   90    83                     374.0000000  393.37933  5.18%   816    3s
H  163   103                     375.0000000  393.37933  4.90%   620    3s
H  201   111                     376.0000000  393.37933  4.62%   573    4s
